
n_res = 8;
rcap = [64, 65, 63, 61, 960, 869, 813, 868];
rtype = [1, 1, 1, 1, 2, 2, 2, 2];
n_tasks = 50;
modes =  [{1, 2, 3, 4, 5, 6}, {7, 8, 9, 10, 11, 12}, {13, 14, 15, 16, 17, 18}, {19, 20, 21, 22, 23, 24}, {25, 26, 27, 28, 29, 30}, {31, 32, 33, 34, 35, 36}, {37, 38, 39, 40, 41, 42}, {43, 44, 45, 46, 47, 48}, {49, 50, 51, 52, 53, 54}, {55, 56, 57, 58, 59, 60}, {61, 62, 63, 64, 65, 66}, {67, 68, 69, 70, 71, 72}, {73, 74, 75, 76, 77, 78}, {79, 80, 81, 82, 83, 84}, {85, 86, 87, 88, 89, 90}, {91, 92, 93, 94, 95, 96}, {97, 98, 99, 100, 101, 102}, {103, 104, 105, 106, 107, 108}, {109, 110, 111, 112, 113, 114}, {115, 116, 117, 118, 119, 120}, {121, 122, 123, 124, 125, 126}, {127, 128, 129, 130, 131, 132}, {133, 134, 135, 136, 137, 138}, {139, 140, 141, 142, 143, 144}, {145, 146, 147, 148, 149, 150}, {151, 152, 153, 154, 155, 156}, {157, 158, 159, 160, 161, 162}, {163, 164, 165, 166, 167, 168}, {169, 170, 171, 172, 173, 174}, {175, 176, 177, 178, 179, 180}, {181, 182, 183, 184, 185, 186}, {187, 188, 189, 190, 191, 192}, {193, 194, 195, 196, 197, 198}, {199, 200, 201, 202, 203, 204}, {205, 206, 207, 208, 209, 210}, {211, 212, 213, 214, 215, 216}, {217, 218, 219, 220, 221, 222}, {223, 224, 225, 226, 227, 228}, {229, 230, 231, 232, 233, 234}, {235, 236, 237, 238, 239, 240}, {241, 242, 243, 244, 245, 246}, {247, 248, 249, 250, 251, 252}, {253, 254, 255, 256, 257, 258}, {259, 260, 261, 262, 263, 264}, {265, 266, 267, 268, 269, 270}, {271, 272, 273, 274, 275, 276}, {277, 278, 279, 280, 281, 282}, {283, 284, 285, 286, 287, 288}, {289, 290, 291, 292, 293, 294}, {295, 296, 297, 298, 299, 300}];
succ =  [{5, 3}, {12, 5}, {12, 11, 6}, {12, 11, 6}, {11, 6}, {18, 9, 8}, {12, 10, 9}, {13, 10}, {17, 16, 15, 14}, {22, 19, 17, 15}, {17, 16, 14}, {22, 18, 14}, {27, 21, 16}, {30, 27, 25, 24, 21, 20}, {30, 25, 24, 23, 21, 20}, {26, 22, 20}, {33, 30, 29, 28, 27, 25, 24}, {31, 30, 29, 28, 25, 24}, {35, 33, 31, 29, 26, 24}, {37, 36, 33, 31, 29, 28}, {36, 33, 31, 28, 26}, {33, 30, 25, 24}, {45, 40, 38, 37, 34, 33}, {44, 43, 36, 32}, {44, 37, 35, 32}, {37, 34, 32}, {38, 34, 32}, {38, 35, 34}, {34, 32}, {50, 45, 42, 38, 34}, {50, 44, 43, 42, 39, 38}, {50, 45, 42, 40, 39}, {50, 48, 43, 42, 39}, {48, 44, 43, 39}, {50, 42, 41, 40}, {41, 38}, {50, 43, 42, 41}, {49, 48, 47, 46}, {49, 47, 41}, {48, 47, 46}, {46}, {46}, {46}, {46}, {46}, {}, {}, {}, {}, {}];
n_opt = 300;
dur = [1, 14, 20, 26, 28, 30, 4, 7, 11, 17, 26, 28, 9, 10, 16, 18, 20, 26, 4, 7, 13, 21, 22, 23, 3, 8, 16, 22, 24, 25, 3, 18, 19, 20, 23, 29, 4, 9, 19, 21, 24, 28, 7, 10, 23, 24, 25, 28, 2, 4, 9, 11, 21, 28, 1, 5, 8, 9, 10, 18, 3, 4, 15, 23, 24, 25, 3, 6, 7, 17, 18, 28, 1, 3, 5, 7, 8, 30, 8, 10, 18, 20, 27, 28, 1, 3, 12, 16, 23, 27, 4, 9, 13, 21, 24, 30, 5, 17, 21, 23, 24, 25, 7, 8, 9, 10, 13, 16, 9, 12, 17, 18, 22, 29, 5, 7, 13, 14, 25, 27, 9, 12, 15, 17, 18, 21, 4, 9, 11, 12, 19, 30, 11, 14, 16, 22, 24, 29, 7, 8, 13, 16, 17, 27, 3, 6, 8, 9, 17, 24, 16, 21, 22, 25, 26, 29, 13, 15, 23, 25, 26, 27, 1, 18, 22, 23, 28, 29, 4, 8, 21, 22, 23, 29, 9, 15, 17, 20, 25, 30, 10, 14, 19, 20, 21, 23, 11, 12, 18, 23, 24, 27, 12, 14, 23, 25, 27, 30, 1, 3, 4, 17, 18, 21, 9, 18, 21, 22, 26, 27, 8, 10, 12, 20, 21, 24, 14, 24, 25, 26, 28, 29, 2, 3, 5, 6, 11, 12, 5, 8, 9, 15, 18, 23, 5, 19, 24, 25, 27, 28, 4, 6, 9, 12, 13, 17, 12, 13, 17, 21, 27, 29, 1, 2, 7, 20, 22, 23, 1, 10, 12, 13, 15, 24, 9, 10, 11, 16, 29, 30, 4, 24, 26, 27, 29, 30, 2, 8, 19, 20, 24, 30, 1, 7, 14, 15, 26, 28, 8, 9, 10, 14, 28, 29, 3, 8, 13, 18, 27, 28];
rreq = [|21, 19, 13, 13, 9, 5, 25, 21, 15, 9, 8, 5, 25, 19, 18, 15, 11, 7, 20, 18, 17, 15, 15, 13, 8, 8, 7, 6, 5, 4, 7, 6, 6, 5, 5, 4, 23, 21, 21, 20, 19, 18, 28, 25, 20, 19, 15, 10, 25, 23, 22, 17, 15, 14, 7, 6, 5, 4, 3, 2, 6, 5, 5, 5, 5, 5, 12, 12, 10, 9, 9, 8, 15, 11, 11, 8, 7, 5, 28, 28, 28, 28, 28, 28, 27, 27, 25, 25, 23, 23, 19, 17, 17, 16, 16, 15, 18, 16, 11, 10, 7, 3, 25, 25, 25, 25, 25, 25, 26, 24, 21, 17, 13, 11, 11, 10, 10, 8, 8, 6, 27, 26, 21, 21, 18, 15, 7, 7, 7, 6, 6, 6, 28, 28, 28, 28, 28, 28, 27, 26, 24, 23, 22, 21, 4, 4, 4, 4, 3, 3, 17, 15, 11, 8, 5, 2, 21, 19, 19, 19, 18, 17, 11, 10, 9, 9, 9, 8, 22, 22, 20, 19, 18, 18, 20, 18, 17, 12, 10, 6, 24, 18, 15, 13, 9, 1, 7, 7, 7, 6, 6, 6, 18, 16, 14, 13, 11, 10, 9, 9, 9, 9, 8, 8, 19, 15, 10, 7, 4, 3, 24, 23, 22, 21, 21, 19, 9, 8, 8, 8, 7, 7, 8, 8, 6, 5, 3, 3, 21, 17, 16, 15, 11, 11, 28, 26, 21, 21, 16, 14, 23, 17, 17, 9, 7, 5, 12, 11, 9, 7, 4, 3, 22, 21, 21, 21, 21, 21, 15, 14, 11, 8, 8, 6, 29, 21, 18, 14, 7, 3, 22, 19, 16, 10, 8, 3, 22, 22, 22, 22, 22, 22, 16, 13, 11, 10, 9, 8, 16, 12, 10, 8, 6, 3, 26, 25, 22, 20, 18, 15
 |9, 7, 7, 6, 4, 4, 12, 11, 11, 10, 10, 9, 13, 11, 11, 11, 10, 9, 22, 18, 15, 12, 10, 7, 6, 6, 6, 6, 6, 6, 20, 17, 14, 12, 9, 6, 12, 11, 8, 7, 4, 2, 26, 25, 24, 24, 23, 22, 29, 27, 23, 23, 18, 17, 22, 19, 18, 15, 13, 12, 28, 27, 25, 24, 23, 21, 24, 23, 19, 15, 8, 6, 19, 19, 19, 19, 19, 19, 18, 16, 12, 10, 6, 2, 16, 15, 13, 13, 11, 10, 15, 15, 13, 13, 11, 11, 24, 23, 22, 21, 21, 20, 23, 22, 22, 22, 22, 22, 20, 18, 18, 18, 16, 16, 20, 18, 18, 16, 14, 13, 17, 16, 14, 11, 6, 4, 21, 21, 21, 21, 21, 21, 28, 24, 20, 10, 7, 3, 18, 17, 17, 17, 17, 17, 23, 21, 19, 18, 17, 15, 17, 17, 15, 15, 13, 13, 28, 26, 25, 23, 22, 22, 21, 19, 19, 16, 16, 14, 21, 17, 14, 13, 8, 6, 16, 16, 16, 16, 15, 15, 19, 19, 19, 18, 18, 18, 27, 24, 17, 14, 12, 6, 26, 23, 20, 19, 17, 16, 20, 19, 15, 13, 9, 8, 29, 25, 21, 19, 16, 12, 18, 15, 14, 10, 10, 8, 27, 26, 26, 24, 23, 22, 22, 22, 17, 15, 12, 10, 22, 18, 12, 11, 9, 6, 12, 10, 9, 9, 7, 4, 20, 19, 19, 17, 17, 15, 21, 16, 11, 8, 4, 4, 23, 21, 18, 16, 13, 13, 15, 13, 10, 10, 7, 6, 21, 18, 16, 12, 8, 3, 24, 22, 19, 16, 10, 9, 19, 19, 17, 16, 16, 15, 8, 7, 5, 3, 3, 2, 14, 14, 14, 13, 13, 13, 4, 4, 4, 4, 3, 3
 |18, 17, 16, 16, 14, 14, 18, 18, 18, 18, 18, 18, 22, 18, 13, 11, 9, 3, 28, 26, 19, 15, 12, 8, 15, 14, 12, 9, 7, 7, 5, 4, 4, 4, 3, 2, 20, 18, 17, 16, 15, 13, 13, 13, 13, 12, 12, 11, 13, 12, 11, 11, 11, 10, 17, 17, 15, 14, 12, 10, 30, 26, 25, 21, 20, 18, 23, 22, 17, 17, 12, 8, 22, 22, 22, 22, 22, 22, 29, 25, 23, 22, 19, 19, 29, 28, 26, 24, 23, 23, 19, 16, 15, 11, 6, 4, 18, 18, 12, 9, 6, 2, 6, 6, 6, 6, 6, 6, 17, 15, 12, 9, 7, 3, 16, 15, 15, 15, 14, 14, 29, 29, 29, 28, 27, 27, 7, 6, 6, 5, 4, 4, 28, 20, 18, 13, 9, 7, 6, 6, 6, 5, 4, 4, 28, 24, 24, 21, 18, 17, 7, 6, 5, 3, 3, 2, 22, 20, 19, 18, 16, 12, 26, 25, 25, 24, 24, 24, 19, 17, 15, 14, 13, 12, 25, 21, 19, 18, 15, 12, 25, 19, 16, 10, 9, 2, 18, 15, 12, 9, 9, 4, 15, 14, 10, 10, 7, 3, 22, 21, 21, 20, 20, 20, 15, 14, 14, 14, 14, 14, 25, 24, 24, 23, 23, 22, 28, 28, 28, 28, 27, 27, 26, 25, 25, 25, 25, 25, 8, 7, 5, 4, 3, 3, 15, 13, 13, 11, 9, 6, 15, 12, 10, 10, 7, 7, 24, 24, 24, 24, 24, 24, 11, 11, 11, 11, 11, 11, 30, 27, 22, 22, 17, 16, 30, 26, 22, 22, 18, 17, 20, 19, 18, 18, 17, 17, 17, 14, 14, 10, 7, 6, 14, 12, 10, 9, 8, 6, 26, 25, 22, 20, 17, 16, 5, 4, 4, 3, 3, 2
 |27, 25, 21, 21, 19, 15, 23, 18, 16, 15, 10, 10, 8, 7, 5, 5, 3, 3, 29, 19, 18, 13, 9, 4, 15, 12, 8, 6, 4, 1, 20, 17, 15, 11, 11, 6, 20, 18, 16, 16, 14, 14, 22, 19, 13, 12, 9, 6, 16, 13, 11, 9, 8, 4, 10, 7, 5, 5, 4, 1, 11, 9, 6, 6, 4, 1, 12, 12, 10, 8, 8, 6, 15, 13, 13, 12, 10, 10, 15, 14, 14, 14, 13, 12, 28, 28, 25, 23, 20, 20, 19, 19, 19, 19, 18, 18, 6, 5, 4, 4, 3, 2, 26, 24, 18, 17, 11, 9, 28, 25, 21, 19, 15, 13, 18, 18, 18, 17, 17, 17, 18, 15, 14, 11, 9, 7, 16, 16, 13, 12, 11, 9, 12, 12, 12, 12, 12, 12, 13, 12, 12, 12, 11, 11, 28, 27, 23, 20, 19, 17, 20, 20, 20, 20, 20, 20, 29, 23, 19, 19, 13, 10, 12, 11, 11, 11, 11, 11, 20, 19, 19, 19, 19, 19, 21, 19, 18, 16, 16, 15, 3, 3, 3, 2, 2, 2, 11, 11, 11, 11, 10, 10, 27, 24, 23, 21, 20, 17, 14, 13, 11, 10, 10, 9, 10, 10, 10, 10, 10, 10, 22, 21, 20, 19, 16, 15, 19, 17, 15, 14, 13, 11, 6, 6, 6, 6, 6, 6, 26, 21, 20, 17, 15, 9, 16, 16, 16, 15, 15, 15, 21, 16, 13, 10, 9, 6, 17, 16, 16, 16, 16, 16, 27, 27, 24, 23, 22, 20, 24, 23, 21, 21, 19, 19, 20, 19, 18, 15, 15, 13, 22, 20, 18, 14, 12, 9, 20, 16, 15, 12, 7, 5, 30, 27, 25, 25, 22, 20, 15, 13, 11, 10, 6, 5, 21, 20, 20, 19, 19, 18
 |16, 14, 11, 11, 8, 7, 24, 21, 17, 14, 10, 3, 12, 11, 11, 11, 10, 9, 29, 28, 28, 28, 27, 26, 26, 24, 23, 21, 19, 18, 20, 16, 14, 14, 11, 9, 30, 30, 30, 30, 30, 30, 30, 29, 29, 28, 28, 27, 16, 15, 12, 12, 10, 7, 27, 27, 24, 23, 21, 19, 28, 28, 27, 26, 25, 24, 24, 22, 22, 20, 19, 17, 9, 7, 7, 6, 6, 5, 19, 19, 18, 18, 17, 17, 21, 20, 20, 19, 19, 18, 29, 28, 27, 26, 25, 25, 18, 18, 16, 14, 14, 12, 28, 27, 26, 24, 23, 23, 24, 21, 21, 19, 17, 16, 14, 14, 12, 10, 9, 9, 17, 16, 15, 14, 13, 11, 27, 27, 27, 27, 27, 27, 9, 9, 9, 9, 9, 9, 20, 17, 14, 11, 9, 7, 20, 20, 15, 13, 12, 9, 24, 20, 16, 14, 9, 6, 24, 24, 22, 21, 21, 20, 27, 23, 18, 12, 11, 5, 28, 25, 21, 17, 17, 14, 28, 25, 23, 22, 19, 18, 24, 22, 20, 20, 17, 16, 24, 22, 21, 20, 19, 17, 19, 17, 15, 11, 11, 9, 29, 27, 24, 19, 15, 13, 19, 15, 12, 11, 8, 2, 17, 17, 15, 15, 14, 13, 26, 26, 25, 24, 22, 21, 9, 7, 6, 6, 5, 4, 21, 19, 16, 12, 10, 7, 17, 14, 14, 11, 8, 2, 14, 13, 13, 12, 12, 11, 15, 13, 13, 11, 11, 9, 19, 15, 12, 11, 5, 5, 4, 3, 3, 3, 3, 3, 28, 26, 23, 18, 18, 13, 25, 22, 15, 15, 10, 8, 10, 10, 8, 8, 5, 4, 29, 29, 29, 29, 29, 29, 17, 14, 12, 10, 7, 2, 26, 26, 26, 26, 26, 26
 |24, 22, 20, 17, 13, 11, 24, 18, 13, 12, 5, 4, 9, 8, 7, 7, 6, 6, 24, 23, 19, 16, 11, 10, 13, 12, 11, 11, 10, 10, 28, 28, 28, 28, 28, 28, 9, 7, 5, 5, 3, 2, 8, 7, 6, 4, 4, 2, 28, 20, 19, 13, 10, 4, 10, 9, 8, 8, 6, 6, 25, 22, 20, 19, 18, 16, 21, 16, 14, 10, 5, 4, 16, 14, 12, 11, 10, 8, 13, 12, 10, 8, 7, 5, 25, 23, 15, 12, 6, 6, 28, 26, 21, 18, 15, 13, 21, 20, 20, 17, 16, 16, 15, 12, 10, 7, 6, 4, 19, 18, 17, 17, 16, 16, 17, 14, 10, 10, 6, 4, 26, 26, 26, 26, 26, 26, 19, 18, 18, 18, 17, 16, 25, 23, 21, 20, 17, 15, 25, 24, 22, 21, 21, 20, 21, 21, 20, 18, 17, 15, 18, 16, 14, 12, 12, 11, 28, 27, 27, 26, 26, 26, 11, 10, 10, 9, 8, 8, 25, 22, 19, 19, 14, 14, 14, 12, 12, 8, 7, 5, 16, 15, 13, 11, 11, 8, 13, 12, 9, 7, 3, 2, 21, 20, 20, 20, 20, 20, 7, 6, 5, 5, 5, 4, 28, 26, 25, 25, 23, 22, 20, 17, 16, 14, 10, 10, 23, 23, 23, 22, 22, 21, 27, 23, 22, 19, 18, 16, 21, 19, 18, 17, 17, 15, 28, 28, 28, 27, 27, 26, 20, 17, 14, 11, 9, 4, 25, 25, 23, 23, 21, 19, 18, 14, 13, 11, 8, 5, 12, 10, 8, 7, 3, 2, 26, 25, 25, 24, 23, 22, 13, 12, 11, 11, 10, 9, 8, 7, 7, 6, 6, 6, 8, 8, 6, 6, 5, 3, 20, 17, 16, 15, 13, 10, 26, 25, 23, 21, 19, 17
 |17, 13, 12, 7, 7, 2, 13, 13, 12, 12, 12, 11, 11, 8, 7, 5, 4, 4, 23, 22, 17, 17, 14, 9, 26, 26, 21, 19, 18, 15, 25, 24, 22, 21, 19, 18, 5, 4, 4, 4, 4, 4, 28, 26, 21, 16, 14, 8, 19, 19, 19, 19, 19, 19, 12, 11, 10, 6, 5, 4, 21, 18, 17, 14, 13, 10, 10, 9, 8, 8, 8, 7, 20, 18, 18, 17, 16, 15, 21, 17, 16, 13, 11, 9, 23, 22, 19, 16, 11, 9, 27, 26, 18, 17, 12, 10, 12, 11, 11, 10, 8, 7, 13, 12, 11, 10, 9, 9, 13, 11, 8, 8, 4, 3, 15, 14, 13, 11, 8, 6, 20, 18, 13, 10, 7, 6, 18, 15, 13, 8, 6, 2, 6, 5, 5, 4, 4, 4, 20, 16, 14, 14, 10, 9, 15, 12, 11, 8, 5, 5, 26, 25, 25, 25, 24, 24, 9, 9, 9, 9, 8, 8, 11, 9, 8, 6, 5, 5, 28, 25, 23, 21, 19, 16, 24, 21, 21, 20, 19, 18, 20, 19, 17, 16, 13, 12, 23, 18, 17, 12, 12, 7, 8, 8, 8, 7, 6, 6, 13, 13, 13, 13, 13, 13, 21, 19, 18, 18, 17, 15, 26, 24, 18, 14, 9, 3, 27, 24, 20, 15, 15, 11, 18, 16, 12, 10, 9, 5, 20, 18, 16, 16, 13, 13, 28, 26, 25, 24, 23, 22, 28, 28, 28, 28, 28, 28, 24, 23, 22, 20, 20, 19, 16, 15, 13, 11, 8, 6, 19, 17, 12, 8, 5, 2, 25, 25, 23, 23, 21, 21, 26, 21, 17, 15, 13, 8, 9, 9, 9, 9, 8, 8, 7, 6, 6, 5, 5, 5, 22, 20, 16, 10, 5, 1, 11, 10, 9, 8, 7, 7
 |22, 19, 15, 15, 12, 8, 26, 25, 24, 22, 20, 19, 13, 12, 10, 7, 5, 5, 28, 27, 26, 26, 25, 23, 7, 7, 6, 6, 5, 5, 25, 19, 16, 13, 7, 4, 12, 12, 12, 11, 11, 10, 9, 9, 8, 7, 7, 6, 28, 27, 27, 27, 26, 25, 26, 22, 22, 17, 16, 13, 19, 13, 13, 8, 5, 2, 20, 19, 14, 13, 9, 6, 13, 11, 10, 8, 4, 2, 18, 17, 17, 16, 16, 16, 23, 22, 18, 16, 13, 11, 27, 23, 21, 19, 17, 16, 27, 19, 17, 11, 6, 2, 21, 17, 17, 15, 12, 11, 29, 27, 23, 21, 19, 18, 18, 16, 12, 8, 5, 3, 21, 21, 19, 19, 18, 17, 23, 22, 21, 21, 19, 18, 25, 20, 17, 17, 14, 11, 25, 22, 20, 19, 16, 14, 21, 18, 15, 13, 11, 9, 11, 9, 8, 5, 4, 2, 22, 21, 16, 15, 10, 8, 14, 14, 10, 8, 8, 6, 18, 18, 18, 18, 18, 18, 15, 14, 10, 9, 6, 3, 24, 22, 16, 16, 11, 7, 25, 20, 19, 16, 14, 11, 15, 14, 14, 13, 13, 13, 27, 23, 18, 16, 9, 8, 30, 28, 27, 26, 26, 25, 17, 14, 11, 9, 4, 4, 6, 6, 6, 5, 5, 4, 11, 10, 10, 10, 10, 10, 21, 21, 20, 18, 15, 15, 9, 9, 9, 9, 8, 8, 26, 20, 16, 16, 8, 7, 19, 19, 18, 16, 14, 13, 4, 3, 3, 3, 3, 3, 21, 21, 19, 15, 12, 9, 25, 22, 17, 14, 11, 7, 18, 13, 12, 11, 7, 4, 23, 23, 22, 22, 22, 21, 11, 11, 11, 11, 11, 11, 26, 26, 24, 24, 23, 21, 17, 17, 17, 17, 17, 17|];